100
0 58 88 71 86 40 61 21 31 14 
66 18 54 72 5 8 23 94 9 11 
38 51 33 78 64 62 30 26 47 59 
60 93 97 15 76 84 20 19 37 73 
87 25 69 96 32 56 50 43 82 3 
52 90 98 53 68 41 10 81 1 92 
24 7 36 89 17 95 70 49 48 44 
22 4 29 39 16 99 80 75 74 57 
12 46 65 67 13 55 2 85 6 28 
35 34 91 79 27 83 42 63 77 45 
